\ Model sspwp
\ LP format - for model browsing. Use MPS format to capture full model detail.
Minimize
  h_max + 3 pxf[1] + 3 pxf[2] + 3 pxf[3] + 3 pxf[4] + 3 pxf[5] + 3 pxf[6]
   + 3 pxf[7] + 3 pxf[8] + 3 pxf[9] + 3 pxf[10] + 3 pxf[11] + 3 pxf[12]
   + 3 pxf[13] + 3 pxf[14] + 3 pxf[15]
Subject To
 c012: 1000 d[1,2] + y[1] - y[2] <= 997
 c013: 1000 d[1,3] + y[1] - y[3] <= 997
 c014: 1000 d[1,4] + y[1] - y[4] <= 997
 c015: 1000 d[1,5] + y[1] - y[5] <= 997
 c016: 1000 d[1,6] + y[1] - y[6] <= 997
 c017: 1000 d[1,7] + y[1] - y[7] <= 997
 c018: 1000 d[1,8] + y[1] - y[8] <= 997
 c019: 1000 d[1,9] + y[1] - y[9] <= 997
 c0110: 1000 d[1,10] + y[1] - y[10] <= 997
 c0111: 1000 d[1,11] + y[1] - y[11] <= 997
 c0112: 1000 d[1,12] + y[1] - y[12] <= 997
 c0113: 1000 d[1,13] + y[1] - y[13] <= 997
 c0114: 1000 d[1,14] + y[1] - y[14] <= 997
 c0115: 1000 d[1,15] + y[1] - y[15] <= 997
 c021: 1000 d[2,1] - y[1] + y[2] <= 997
 c023: 1000 d[2,3] + y[2] - y[3] <= 997
 c024: 1000 d[2,4] + y[2] - y[4] <= 997
 c025: 1000 d[2,5] + y[2] - y[5] <= 997
 c026: 1000 d[2,6] + y[2] - y[6] <= 997
 c027: 1000 d[2,7] + y[2] - y[7] <= 997
 c028: 1000 d[2,8] + y[2] - y[8] <= 997
 c029: 1000 d[2,9] + y[2] - y[9] <= 997
 c0210: 1000 d[2,10] + y[2] - y[10] <= 997
 c0211: 1000 d[2,11] + y[2] - y[11] <= 997
 c0212: 1000 d[2,12] + y[2] - y[12] <= 997
 c0213: 1000 d[2,13] + y[2] - y[13] <= 997
 c0214: 1000 d[2,14] + y[2] - y[14] <= 997
 c0215: 1000 d[2,15] + y[2] - y[15] <= 997
 c031: 1000 d[3,1] - y[1] + y[3] <= 997
 c032: 1000 d[3,2] - y[2] + y[3] <= 997
 c034: 1000 d[3,4] + y[3] - y[4] <= 997
 c035: 1000 d[3,5] + y[3] - y[5] <= 997
 c036: 1000 d[3,6] + y[3] - y[6] <= 997
 c037: 1000 d[3,7] + y[3] - y[7] <= 997
 c038: 1000 d[3,8] + y[3] - y[8] <= 997
 c039: 1000 d[3,9] + y[3] - y[9] <= 997
 c0310: 1000 d[3,10] + y[3] - y[10] <= 997
 c0311: 1000 d[3,11] + y[3] - y[11] <= 997
 c0312: 1000 d[3,12] + y[3] - y[12] <= 997
 c0313: 1000 d[3,13] + y[3] - y[13] <= 997
 c0314: 1000 d[3,14] + y[3] - y[14] <= 997
 c0315: 1000 d[3,15] + y[3] - y[15] <= 997
 c041: 1000 d[4,1] - y[1] + y[4] <= 994
 c042: 1000 d[4,2] - y[2] + y[4] <= 994
 c043: 1000 d[4,3] - y[3] + y[4] <= 994
 c045: 1000 d[4,5] + y[4] - y[5] <= 994
 c046: 1000 d[4,6] + y[4] - y[6] <= 994
 c047: 1000 d[4,7] + y[4] - y[7] <= 994
 c048: 1000 d[4,8] + y[4] - y[8] <= 994
 c049: 1000 d[4,9] + y[4] - y[9] <= 994
 c0410: 1000 d[4,10] + y[4] - y[10] <= 994
 c0411: 1000 d[4,11] + y[4] - y[11] <= 994
 c0412: 1000 d[4,12] + y[4] - y[12] <= 994
 c0413: 1000 d[4,13] + y[4] - y[13] <= 994
 c0414: 1000 d[4,14] + y[4] - y[14] <= 994
 c0415: 1000 d[4,15] + y[4] - y[15] <= 994
 c051: 1000 d[5,1] - y[1] + y[5] <= 994
 c052: 1000 d[5,2] - y[2] + y[5] <= 994
 c053: 1000 d[5,3] - y[3] + y[5] <= 994
 c054: 1000 d[5,4] - y[4] + y[5] <= 994
 c056: 1000 d[5,6] + y[5] - y[6] <= 994
 c057: 1000 d[5,7] + y[5] - y[7] <= 994
 c058: 1000 d[5,8] + y[5] - y[8] <= 994
 c059: 1000 d[5,9] + y[5] - y[9] <= 994
 c0510: 1000 d[5,10] + y[5] - y[10] <= 994
 c0511: 1000 d[5,11] + y[5] - y[11] <= 994
 c0512: 1000 d[5,12] + y[5] - y[12] <= 994
 c0513: 1000 d[5,13] + y[5] - y[13] <= 994
 c0514: 1000 d[5,14] + y[5] - y[14] <= 994
 c0515: 1000 d[5,15] + y[5] - y[15] <= 994
 c061: 1000 d[6,1] - y[1] + y[6] <= 993
 c062: 1000 d[6,2] - y[2] + y[6] <= 993
 c063: 1000 d[6,3] - y[3] + y[6] <= 993
 c064: 1000 d[6,4] - y[4] + y[6] <= 993
 c065: 1000 d[6,5] - y[5] + y[6] <= 993
 c067: 1000 d[6,7] + y[6] - y[7] <= 993
 c068: 1000 d[6,8] + y[6] - y[8] <= 993
 c069: 1000 d[6,9] + y[6] - y[9] <= 993
 c0610: 1000 d[6,10] + y[6] - y[10] <= 993
 c0611: 1000 d[6,11] + y[6] - y[11] <= 993
 c0612: 1000 d[6,12] + y[6] - y[12] <= 993
 c0613: 1000 d[6,13] + y[6] - y[13] <= 993
 c0614: 1000 d[6,14] + y[6] - y[14] <= 993
 c0615: 1000 d[6,15] + y[6] - y[15] <= 993
 c071: 1000 d[7,1] - y[1] + y[7] <= 992
 c072: 1000 d[7,2] - y[2] + y[7] <= 992
 c073: 1000 d[7,3] - y[3] + y[7] <= 992
 c074: 1000 d[7,4] - y[4] + y[7] <= 992
 c075: 1000 d[7,5] - y[5] + y[7] <= 992
 c076: 1000 d[7,6] - y[6] + y[7] <= 992
 c078: 1000 d[7,8] + y[7] - y[8] <= 992
 c079: 1000 d[7,9] + y[7] - y[9] <= 992
 c0710: 1000 d[7,10] + y[7] - y[10] <= 992
 c0711: 1000 d[7,11] + y[7] - y[11] <= 992
 c0712: 1000 d[7,12] + y[7] - y[12] <= 992
 c0713: 1000 d[7,13] + y[7] - y[13] <= 992
 c0714: 1000 d[7,14] + y[7] - y[14] <= 992
 c0715: 1000 d[7,15] + y[7] - y[15] <= 992
 c081: 1000 d[8,1] - y[1] + y[8] <= 991
 c082: 1000 d[8,2] - y[2] + y[8] <= 991
 c083: 1000 d[8,3] - y[3] + y[8] <= 991
 c084: 1000 d[8,4] - y[4] + y[8] <= 991
 c085: 1000 d[8,5] - y[5] + y[8] <= 991
 c086: 1000 d[8,6] - y[6] + y[8] <= 991
 c087: 1000 d[8,7] - y[7] + y[8] <= 991
 c089: 1000 d[8,9] + y[8] - y[9] <= 991
 c0810: 1000 d[8,10] + y[8] - y[10] <= 991
 c0811: 1000 d[8,11] + y[8] - y[11] <= 991
 c0812: 1000 d[8,12] + y[8] - y[12] <= 991
 c0813: 1000 d[8,13] + y[8] - y[13] <= 991
 c0814: 1000 d[8,14] + y[8] - y[14] <= 991
 c0815: 1000 d[8,15] + y[8] - y[15] <= 991
 c091: 1000 d[9,1] - y[1] + y[9] <= 991
 c092: 1000 d[9,2] - y[2] + y[9] <= 991
 c093: 1000 d[9,3] - y[3] + y[9] <= 991
 c094: 1000 d[9,4] - y[4] + y[9] <= 991
 c095: 1000 d[9,5] - y[5] + y[9] <= 991
 c096: 1000 d[9,6] - y[6] + y[9] <= 991
 c097: 1000 d[9,7] - y[7] + y[9] <= 991
 c098: 1000 d[9,8] - y[8] + y[9] <= 991
 c0910: 1000 d[9,10] + y[9] - y[10] <= 991
 c0911: 1000 d[9,11] + y[9] - y[11] <= 991
 c0912: 1000 d[9,12] + y[9] - y[12] <= 991
 c0913: 1000 d[9,13] + y[9] - y[13] <= 991
 c0914: 1000 d[9,14] + y[9] - y[14] <= 991
 c0915: 1000 d[9,15] + y[9] - y[15] <= 991
 c0101: 1000 d[10,1] - y[1] + y[10] <= 990
 c0102: 1000 d[10,2] - y[2] + y[10] <= 990
 c0103: 1000 d[10,3] - y[3] + y[10] <= 990
 c0104: 1000 d[10,4] - y[4] + y[10] <= 990
 c0105: 1000 d[10,5] - y[5] + y[10] <= 990
 c0106: 1000 d[10,6] - y[6] + y[10] <= 990
 c0107: 1000 d[10,7] - y[7] + y[10] <= 990
 c0108: 1000 d[10,8] - y[8] + y[10] <= 990
 c0109: 1000 d[10,9] - y[9] + y[10] <= 990
 c01011: 1000 d[10,11] + y[10] - y[11] <= 990
 c01012: 1000 d[10,12] + y[10] - y[12] <= 990
 c01013: 1000 d[10,13] + y[10] - y[13] <= 990
 c01014: 1000 d[10,14] + y[10] - y[14] <= 990
 c01015: 1000 d[10,15] + y[10] - y[15] <= 990
 c0111: 1000 d[11,1] - y[1] + y[11] <= 989
 c0112: 1000 d[11,2] - y[2] + y[11] <= 989
 c0113: 1000 d[11,3] - y[3] + y[11] <= 989
 c0114: 1000 d[11,4] - y[4] + y[11] <= 989
 c0115: 1000 d[11,5] - y[5] + y[11] <= 989
 c0116: 1000 d[11,6] - y[6] + y[11] <= 989
 c0117: 1000 d[11,7] - y[7] + y[11] <= 989
 c0118: 1000 d[11,8] - y[8] + y[11] <= 989
 c0119: 1000 d[11,9] - y[9] + y[11] <= 989
 c01110: 1000 d[11,10] - y[10] + y[11] <= 989
 c01112: 1000 d[11,12] + y[11] - y[12] <= 989
 c01113: 1000 d[11,13] + y[11] - y[13] <= 989
 c01114: 1000 d[11,14] + y[11] - y[14] <= 989
 c01115: 1000 d[11,15] + y[11] - y[15] <= 989
 c0121: 1000 d[12,1] - y[1] + y[12] <= 989
 c0122: 1000 d[12,2] - y[2] + y[12] <= 989
 c0123: 1000 d[12,3] - y[3] + y[12] <= 989
 c0124: 1000 d[12,4] - y[4] + y[12] <= 989
 c0125: 1000 d[12,5] - y[5] + y[12] <= 989
 c0126: 1000 d[12,6] - y[6] + y[12] <= 989
 c0127: 1000 d[12,7] - y[7] + y[12] <= 989
 c0128: 1000 d[12,8] - y[8] + y[12] <= 989
 c0129: 1000 d[12,9] - y[9] + y[12] <= 989
 c01210: 1000 d[12,10] - y[10] + y[12] <= 989
 c01211: 1000 d[12,11] - y[11] + y[12] <= 989
 c01213: 1000 d[12,13] + y[12] - y[13] <= 989
 c01214: 1000 d[12,14] + y[12] - y[14] <= 989
 c01215: 1000 d[12,15] + y[12] - y[15] <= 989
 c0131: 1000 d[13,1] - y[1] + y[13] <= 988
 c0132: 1000 d[13,2] - y[2] + y[13] <= 988
 c0133: 1000 d[13,3] - y[3] + y[13] <= 988
 c0134: 1000 d[13,4] - y[4] + y[13] <= 988
 c0135: 1000 d[13,5] - y[5] + y[13] <= 988
 c0136: 1000 d[13,6] - y[6] + y[13] <= 988
 c0137: 1000 d[13,7] - y[7] + y[13] <= 988
 c0138: 1000 d[13,8] - y[8] + y[13] <= 988
 c0139: 1000 d[13,9] - y[9] + y[13] <= 988
 c01310: 1000 d[13,10] - y[10] + y[13] <= 988
 c01311: 1000 d[13,11] - y[11] + y[13] <= 988
 c01312: 1000 d[13,12] - y[12] + y[13] <= 988
 c01314: 1000 d[13,14] + y[13] - y[14] <= 988
 c01315: 1000 d[13,15] + y[13] - y[15] <= 988
 c0141: 1000 d[14,1] - y[1] + y[14] <= 988
 c0142: 1000 d[14,2] - y[2] + y[14] <= 988
 c0143: 1000 d[14,3] - y[3] + y[14] <= 988
 c0144: 1000 d[14,4] - y[4] + y[14] <= 988
 c0145: 1000 d[14,5] - y[5] + y[14] <= 988
 c0146: 1000 d[14,6] - y[6] + y[14] <= 988
 c0147: 1000 d[14,7] - y[7] + y[14] <= 988
 c0148: 1000 d[14,8] - y[8] + y[14] <= 988
 c0149: 1000 d[14,9] - y[9] + y[14] <= 988
 c01410: 1000 d[14,10] - y[10] + y[14] <= 988
 c01411: 1000 d[14,11] - y[11] + y[14] <= 988
 c01412: 1000 d[14,12] - y[12] + y[14] <= 988
 c01413: 1000 d[14,13] - y[13] + y[14] <= 988
 c01415: 1000 d[14,15] + y[14] - y[15] <= 988
 c0151: 1000 d[15,1] - y[1] + y[15] <= 988
 c0152: 1000 d[15,2] - y[2] + y[15] <= 988
 c0153: 1000 d[15,3] - y[3] + y[15] <= 988
 c0154: 1000 d[15,4] - y[4] + y[15] <= 988
 c0155: 1000 d[15,5] - y[5] + y[15] <= 988
 c0156: 1000 d[15,6] - y[6] + y[15] <= 988
 c0157: 1000 d[15,7] - y[7] + y[15] <= 988
 c0158: 1000 d[15,8] - y[8] + y[15] <= 988
 c0159: 1000 d[15,9] - y[9] + y[15] <= 988
 c01510: 1000 d[15,10] - y[10] + y[15] <= 988
 c01511: 1000 d[15,11] - y[11] + y[15] <= 988
 c01512: 1000 d[15,12] - y[12] + y[15] <= 988
 c01513: 1000 d[15,13] - y[13] + y[15] <= 988
 c01514: 1000 d[15,14] - y[14] + y[15] <= 988
 c112: 1000 l[1,2] + x[1] - x[2] <= 998
 c113: 1000 l[1,3] + x[1] - x[3] <= 998
 c114: 1000 l[1,4] + x[1] - x[4] <= 998
 c115: 1000 l[1,5] + x[1] - x[5] <= 998
 c116: 1000 l[1,6] + x[1] - x[6] <= 998
 c117: 1000 l[1,7] + x[1] - x[7] <= 998
 c118: 1000 l[1,8] + x[1] - x[8] <= 998
 c119: 1000 l[1,9] + x[1] - x[9] <= 998
 c1110: 1000 l[1,10] + x[1] - x[10] <= 998
 c1111: 1000 l[1,11] + x[1] - x[11] <= 998
 c1112: 1000 l[1,12] + x[1] - x[12] <= 998
 c1113: 1000 l[1,13] + x[1] - x[13] <= 998
 c1114: 1000 l[1,14] + x[1] - x[14] <= 998
 c1115: 1000 l[1,15] + x[1] - x[15] <= 998
 c121: 1000 l[2,1] - x[1] + x[2] <= 998
 c123: 1000 l[2,3] + x[2] - x[3] <= 998
 c124: 1000 l[2,4] + x[2] - x[4] <= 998
 c125: 1000 l[2,5] + x[2] - x[5] <= 998
 c126: 1000 l[2,6] + x[2] - x[6] <= 998
 c127: 1000 l[2,7] + x[2] - x[7] <= 998
 c128: 1000 l[2,8] + x[2] - x[8] <= 998
 c129: 1000 l[2,9] + x[2] - x[9] <= 998
 c1210: 1000 l[2,10] + x[2] - x[10] <= 998
 c1211: 1000 l[2,11] + x[2] - x[11] <= 998
 c1212: 1000 l[2,12] + x[2] - x[12] <= 998
 c1213: 1000 l[2,13] + x[2] - x[13] <= 998
 c1214: 1000 l[2,14] + x[2] - x[14] <= 998
 c1215: 1000 l[2,15] + x[2] - x[15] <= 998
 c131: 1000 l[3,1] - x[1] + x[3] <= 997
 c132: 1000 l[3,2] - x[2] + x[3] <= 997
 c134: 1000 l[3,4] + x[3] - x[4] <= 997
 c135: 1000 l[3,5] + x[3] - x[5] <= 997
 c136: 1000 l[3,6] + x[3] - x[6] <= 997
 c137: 1000 l[3,7] + x[3] - x[7] <= 997
 c138: 1000 l[3,8] + x[3] - x[8] <= 997
 c139: 1000 l[3,9] + x[3] - x[9] <= 997
 c1310: 1000 l[3,10] + x[3] - x[10] <= 997
 c1311: 1000 l[3,11] + x[3] - x[11] <= 997
 c1312: 1000 l[3,12] + x[3] - x[12] <= 997
 c1313: 1000 l[3,13] + x[3] - x[13] <= 997
 c1314: 1000 l[3,14] + x[3] - x[14] <= 997
 c1315: 1000 l[3,15] + x[3] - x[15] <= 997
 c141: 1000 l[4,1] - x[1] + x[4] <= 997
 c142: 1000 l[4,2] - x[2] + x[4] <= 997
 c143: 1000 l[4,3] - x[3] + x[4] <= 997
 c145: 1000 l[4,5] + x[4] - x[5] <= 997
 c146: 1000 l[4,6] + x[4] - x[6] <= 997
 c147: 1000 l[4,7] + x[4] - x[7] <= 997
 c148: 1000 l[4,8] + x[4] - x[8] <= 997
 c149: 1000 l[4,9] + x[4] - x[9] <= 997
 c1410: 1000 l[4,10] + x[4] - x[10] <= 997
 c1411: 1000 l[4,11] + x[4] - x[11] <= 997
 c1412: 1000 l[4,12] + x[4] - x[12] <= 997
 c1413: 1000 l[4,13] + x[4] - x[13] <= 997
 c1414: 1000 l[4,14] + x[4] - x[14] <= 997
 c1415: 1000 l[4,15] + x[4] - x[15] <= 997
 c151: 1000 l[5,1] - x[1] + x[5] <= 997
 c152: 1000 l[5,2] - x[2] + x[5] <= 997
 c153: 1000 l[5,3] - x[3] + x[5] <= 997
 c154: 1000 l[5,4] - x[4] + x[5] <= 997
 c156: 1000 l[5,6] + x[5] - x[6] <= 997
 c157: 1000 l[5,7] + x[5] - x[7] <= 997
 c158: 1000 l[5,8] + x[5] - x[8] <= 997
 c159: 1000 l[5,9] + x[5] - x[9] <= 997
 c1510: 1000 l[5,10] + x[5] - x[10] <= 997
 c1511: 1000 l[5,11] + x[5] - x[11] <= 997
 c1512: 1000 l[5,12] + x[5] - x[12] <= 997
 c1513: 1000 l[5,13] + x[5] - x[13] <= 997
 c1514: 1000 l[5,14] + x[5] - x[14] <= 997
 c1515: 1000 l[5,15] + x[5] - x[15] <= 997
 c161: 1000 l[6,1] - x[1] + x[6] <= 996
 c162: 1000 l[6,2] - x[2] + x[6] <= 996
 c163: 1000 l[6,3] - x[3] + x[6] <= 996
 c164: 1000 l[6,4] - x[4] + x[6] <= 996
 c165: 1000 l[6,5] - x[5] + x[6] <= 996
 c167: 1000 l[6,7] + x[6] - x[7] <= 996
 c168: 1000 l[6,8] + x[6] - x[8] <= 996
 c169: 1000 l[6,9] + x[6] - x[9] <= 996
 c1610: 1000 l[6,10] + x[6] - x[10] <= 996
 c1611: 1000 l[6,11] + x[6] - x[11] <= 996
 c1612: 1000 l[6,12] + x[6] - x[12] <= 996
 c1613: 1000 l[6,13] + x[6] - x[13] <= 996
 c1614: 1000 l[6,14] + x[6] - x[14] <= 996
 c1615: 1000 l[6,15] + x[6] - x[15] <= 996
 c171: 1000 l[7,1] - x[1] + x[7] <= 995
 c172: 1000 l[7,2] - x[2] + x[7] <= 995
 c173: 1000 l[7,3] - x[3] + x[7] <= 995
 c174: 1000 l[7,4] - x[4] + x[7] <= 995
 c175: 1000 l[7,5] - x[5] + x[7] <= 995
 c176: 1000 l[7,6] - x[6] + x[7] <= 995
 c178: 1000 l[7,8] + x[7] - x[8] <= 995
 c179: 1000 l[7,9] + x[7] - x[9] <= 995
 c1710: 1000 l[7,10] + x[7] - x[10] <= 995
 c1711: 1000 l[7,11] + x[7] - x[11] <= 995
 c1712: 1000 l[7,12] + x[7] - x[12] <= 995
 c1713: 1000 l[7,13] + x[7] - x[13] <= 995
 c1714: 1000 l[7,14] + x[7] - x[14] <= 995
 c1715: 1000 l[7,15] + x[7] - x[15] <= 995
 c181: 1000 l[8,1] - x[1] + x[8] <= 994
 c182: 1000 l[8,2] - x[2] + x[8] <= 994
 c183: 1000 l[8,3] - x[3] + x[8] <= 994
 c184: 1000 l[8,4] - x[4] + x[8] <= 994
 c185: 1000 l[8,5] - x[5] + x[8] <= 994
 c186: 1000 l[8,6] - x[6] + x[8] <= 994
 c187: 1000 l[8,7] - x[7] + x[8] <= 994
 c189: 1000 l[8,9] + x[8] - x[9] <= 994
 c1810: 1000 l[8,10] + x[8] - x[10] <= 994
 c1811: 1000 l[8,11] + x[8] - x[11] <= 994
 c1812: 1000 l[8,12] + x[8] - x[12] <= 994
 c1813: 1000 l[8,13] + x[8] - x[13] <= 994
 c1814: 1000 l[8,14] + x[8] - x[14] <= 994
 c1815: 1000 l[8,15] + x[8] - x[15] <= 994
 c191: 1000 l[9,1] - x[1] + x[9] <= 994
 c192: 1000 l[9,2] - x[2] + x[9] <= 994
 c193: 1000 l[9,3] - x[3] + x[9] <= 994
 c194: 1000 l[9,4] - x[4] + x[9] <= 994
 c195: 1000 l[9,5] - x[5] + x[9] <= 994
 c196: 1000 l[9,6] - x[6] + x[9] <= 994
 c197: 1000 l[9,7] - x[7] + x[9] <= 994
 c198: 1000 l[9,8] - x[8] + x[9] <= 994
 c1910: 1000 l[9,10] + x[9] - x[10] <= 994
 c1911: 1000 l[9,11] + x[9] - x[11] <= 994
 c1912: 1000 l[9,12] + x[9] - x[12] <= 994
 c1913: 1000 l[9,13] + x[9] - x[13] <= 994
 c1914: 1000 l[9,14] + x[9] - x[14] <= 994
 c1915: 1000 l[9,15] + x[9] - x[15] <= 994
 c1101: 1000 l[10,1] - x[1] + x[10] <= 994
 c1102: 1000 l[10,2] - x[2] + x[10] <= 994
 c1103: 1000 l[10,3] - x[3] + x[10] <= 994
 c1104: 1000 l[10,4] - x[4] + x[10] <= 994
 c1105: 1000 l[10,5] - x[5] + x[10] <= 994
 c1106: 1000 l[10,6] - x[6] + x[10] <= 994
 c1107: 1000 l[10,7] - x[7] + x[10] <= 994
 c1108: 1000 l[10,8] - x[8] + x[10] <= 994
 c1109: 1000 l[10,9] - x[9] + x[10] <= 994
 c11011: 1000 l[10,11] + x[10] - x[11] <= 994
 c11012: 1000 l[10,12] + x[10] - x[12] <= 994
 c11013: 1000 l[10,13] + x[10] - x[13] <= 994
 c11014: 1000 l[10,14] + x[10] - x[14] <= 994
 c11015: 1000 l[10,15] + x[10] - x[15] <= 994
 c1111: 1000 l[11,1] - x[1] + x[11] <= 993
 c1112: 1000 l[11,2] - x[2] + x[11] <= 993
 c1113: 1000 l[11,3] - x[3] + x[11] <= 993
 c1114: 1000 l[11,4] - x[4] + x[11] <= 993
 c1115: 1000 l[11,5] - x[5] + x[11] <= 993
 c1116: 1000 l[11,6] - x[6] + x[11] <= 993
 c1117: 1000 l[11,7] - x[7] + x[11] <= 993
 c1118: 1000 l[11,8] - x[8] + x[11] <= 993
 c1119: 1000 l[11,9] - x[9] + x[11] <= 993
 c11110: 1000 l[11,10] - x[10] + x[11] <= 993
 c11112: 1000 l[11,12] + x[11] - x[12] <= 993
 c11113: 1000 l[11,13] + x[11] - x[13] <= 993
 c11114: 1000 l[11,14] + x[11] - x[14] <= 993
 c11115: 1000 l[11,15] + x[11] - x[15] <= 993
 c1121: 1000 l[12,1] - x[1] + x[12] <= 992
 c1122: 1000 l[12,2] - x[2] + x[12] <= 992
 c1123: 1000 l[12,3] - x[3] + x[12] <= 992
 c1124: 1000 l[12,4] - x[4] + x[12] <= 992
 c1125: 1000 l[12,5] - x[5] + x[12] <= 992
 c1126: 1000 l[12,6] - x[6] + x[12] <= 992
 c1127: 1000 l[12,7] - x[7] + x[12] <= 992
 c1128: 1000 l[12,8] - x[8] + x[12] <= 992
 c1129: 1000 l[12,9] - x[9] + x[12] <= 992
 c11210: 1000 l[12,10] - x[10] + x[12] <= 992
 c11211: 1000 l[12,11] - x[11] + x[12] <= 992
 c11213: 1000 l[12,13] + x[12] - x[13] <= 992
 c11214: 1000 l[12,14] + x[12] - x[14] <= 992
 c11215: 1000 l[12,15] + x[12] - x[15] <= 992
 c1131: 1000 l[13,1] - x[1] + x[13] <= 992
 c1132: 1000 l[13,2] - x[2] + x[13] <= 992
 c1133: 1000 l[13,3] - x[3] + x[13] <= 992
 c1134: 1000 l[13,4] - x[4] + x[13] <= 992
 c1135: 1000 l[13,5] - x[5] + x[13] <= 992
 c1136: 1000 l[13,6] - x[6] + x[13] <= 992
 c1137: 1000 l[13,7] - x[7] + x[13] <= 992
 c1138: 1000 l[13,8] - x[8] + x[13] <= 992
 c1139: 1000 l[13,9] - x[9] + x[13] <= 992
 c11310: 1000 l[13,10] - x[10] + x[13] <= 992
 c11311: 1000 l[13,11] - x[11] + x[13] <= 992
 c11312: 1000 l[13,12] - x[12] + x[13] <= 992
 c11314: 1000 l[13,14] + x[13] - x[14] <= 992
 c11315: 1000 l[13,15] + x[13] - x[15] <= 992
 c1141: 1000 l[14,1] - x[1] + x[14] <= 992
 c1142: 1000 l[14,2] - x[2] + x[14] <= 992
 c1143: 1000 l[14,3] - x[3] + x[14] <= 992
 c1144: 1000 l[14,4] - x[4] + x[14] <= 992
 c1145: 1000 l[14,5] - x[5] + x[14] <= 992
 c1146: 1000 l[14,6] - x[6] + x[14] <= 992
 c1147: 1000 l[14,7] - x[7] + x[14] <= 992
 c1148: 1000 l[14,8] - x[8] + x[14] <= 992
 c1149: 1000 l[14,9] - x[9] + x[14] <= 992
 c11410: 1000 l[14,10] - x[10] + x[14] <= 992
 c11411: 1000 l[14,11] - x[11] + x[14] <= 992
 c11412: 1000 l[14,12] - x[12] + x[14] <= 992
 c11413: 1000 l[14,13] - x[13] + x[14] <= 992
 c11415: 1000 l[14,15] + x[14] - x[15] <= 992
 c1151: 1000 l[15,1] - x[1] + x[15] <= 991
 c1152: 1000 l[15,2] - x[2] + x[15] <= 991
 c1153: 1000 l[15,3] - x[3] + x[15] <= 991
 c1154: 1000 l[15,4] - x[4] + x[15] <= 991
 c1155: 1000 l[15,5] - x[5] + x[15] <= 991
 c1156: 1000 l[15,6] - x[6] + x[15] <= 991
 c1157: 1000 l[15,7] - x[7] + x[15] <= 991
 c1158: 1000 l[15,8] - x[8] + x[15] <= 991
 c1159: 1000 l[15,9] - x[9] + x[15] <= 991
 c11510: 1000 l[15,10] - x[10] + x[15] <= 991
 c11511: 1000 l[15,11] - x[11] + x[15] <= 991
 c11512: 1000 l[15,12] - x[12] + x[15] <= 991
 c11513: 1000 l[15,13] - x[13] + x[15] <= 991
 c11514: 1000 l[15,14] - x[14] + x[15] <= 991
 c212: l[1,2] + l[2,1] <= 1
 c312: d[1,2] + d[2,1] <= 1
 c412: d[1,2] + d[2,1] + l[1,2] + l[2,1] >= 1
 c213: l[1,3] + l[3,1] <= 1
 c313: d[1,3] + d[3,1] <= 1
 c413: d[1,3] + d[3,1] + l[1,3] + l[3,1] >= 1
 c214: l[1,4] + l[4,1] <= 1
 c314: d[1,4] + d[4,1] <= 1
 c414: d[1,4] + d[4,1] + l[1,4] + l[4,1] >= 1
 c215: l[1,5] + l[5,1] <= 1
 c315: d[1,5] + d[5,1] <= 1
 c415: d[1,5] + d[5,1] + l[1,5] + l[5,1] >= 1
 c216: l[1,6] + l[6,1] <= 1
 c316: d[1,6] + d[6,1] <= 1
 c416: d[1,6] + d[6,1] + l[1,6] + l[6,1] >= 1
 c217: l[1,7] + l[7,1] <= 1
 c317: d[1,7] + d[7,1] <= 1
 c417: d[1,7] + d[7,1] + l[1,7] + l[7,1] >= 1
 c218: l[1,8] + l[8,1] <= 1
 c318: d[1,8] + d[8,1] <= 1
 c418: d[1,8] + d[8,1] + l[1,8] + l[8,1] >= 1
 c219: l[1,9] + l[9,1] <= 1
 c319: d[1,9] + d[9,1] <= 1
 c419: d[1,9] + d[9,1] + l[1,9] + l[9,1] >= 1
 c2110: l[1,10] + l[10,1] <= 1
 c3110: d[1,10] + d[10,1] <= 1
 c4110: d[1,10] + d[10,1] + l[1,10] + l[10,1] >= 1
 c2111: l[1,11] + l[11,1] <= 1
 c3111: d[1,11] + d[11,1] <= 1
 c4111: d[1,11] + d[11,1] + l[1,11] + l[11,1] >= 1
 c2112: l[1,12] + l[12,1] <= 1
 c3112: d[1,12] + d[12,1] <= 1
 c4112: d[1,12] + d[12,1] + l[1,12] + l[12,1] >= 1
 c2113: l[1,13] + l[13,1] <= 1
 c3113: d[1,13] + d[13,1] <= 1
 c4113: d[1,13] + d[13,1] + l[1,13] + l[13,1] >= 1
 c2114: l[1,14] + l[14,1] <= 1
 c3114: d[1,14] + d[14,1] <= 1
 c4114: d[1,14] + d[14,1] + l[1,14] + l[14,1] >= 1
 c2115: l[1,15] + l[15,1] <= 1
 c3115: d[1,15] + d[15,1] <= 1
 c4115: d[1,15] + d[15,1] + l[1,15] + l[15,1] >= 1
 c223: l[2,3] + l[3,2] <= 1
 c323: d[2,3] + d[3,2] <= 1
 c423: d[2,3] + d[3,2] + l[2,3] + l[3,2] >= 1
 c224: l[2,4] + l[4,2] <= 1
 c324: d[2,4] + d[4,2] <= 1
 c424: d[2,4] + d[4,2] + l[2,4] + l[4,2] >= 1
 c225: l[2,5] + l[5,2] <= 1
 c325: d[2,5] + d[5,2] <= 1
 c425: d[2,5] + d[5,2] + l[2,5] + l[5,2] >= 1
 c226: l[2,6] + l[6,2] <= 1
 c326: d[2,6] + d[6,2] <= 1
 c426: d[2,6] + d[6,2] + l[2,6] + l[6,2] >= 1
 c227: l[2,7] + l[7,2] <= 1
 c327: d[2,7] + d[7,2] <= 1
 c427: d[2,7] + d[7,2] + l[2,7] + l[7,2] >= 1
 c228: l[2,8] + l[8,2] <= 1
 c328: d[2,8] + d[8,2] <= 1
 c428: d[2,8] + d[8,2] + l[2,8] + l[8,2] >= 1
 c229: l[2,9] + l[9,2] <= 1
 c329: d[2,9] + d[9,2] <= 1
 c429: d[2,9] + d[9,2] + l[2,9] + l[9,2] >= 1
 c2210: l[2,10] + l[10,2] <= 1
 c3210: d[2,10] + d[10,2] <= 1
 c4210: d[2,10] + d[10,2] + l[2,10] + l[10,2] >= 1
 c2211: l[2,11] + l[11,2] <= 1
 c3211: d[2,11] + d[11,2] <= 1
 c4211: d[2,11] + d[11,2] + l[2,11] + l[11,2] >= 1
 c2212: l[2,12] + l[12,2] <= 1
 c3212: d[2,12] + d[12,2] <= 1
 c4212: d[2,12] + d[12,2] + l[2,12] + l[12,2] >= 1
 c2213: l[2,13] + l[13,2] <= 1
 c3213: d[2,13] + d[13,2] <= 1
 c4213: d[2,13] + d[13,2] + l[2,13] + l[13,2] >= 1
 c2214: l[2,14] + l[14,2] <= 1
 c3214: d[2,14] + d[14,2] <= 1
 c4214: d[2,14] + d[14,2] + l[2,14] + l[14,2] >= 1
 c2215: l[2,15] + l[15,2] <= 1
 c3215: d[2,15] + d[15,2] <= 1
 c4215: d[2,15] + d[15,2] + l[2,15] + l[15,2] >= 1
 c234: l[3,4] + l[4,3] <= 1
 c334: d[3,4] + d[4,3] <= 1
 c434: d[3,4] + d[4,3] + l[3,4] + l[4,3] >= 1
 c235: l[3,5] + l[5,3] <= 1
 c335: d[3,5] + d[5,3] <= 1
 c435: d[3,5] + d[5,3] + l[3,5] + l[5,3] >= 1
 c236: l[3,6] + l[6,3] <= 1
 c336: d[3,6] + d[6,3] <= 1
 c436: d[3,6] + d[6,3] + l[3,6] + l[6,3] >= 1
 c237: l[3,7] + l[7,3] <= 1
 c337: d[3,7] + d[7,3] <= 1
 c437: d[3,7] + d[7,3] + l[3,7] + l[7,3] >= 1
 c238: l[3,8] + l[8,3] <= 1
 c338: d[3,8] + d[8,3] <= 1
 c438: d[3,8] + d[8,3] + l[3,8] + l[8,3] >= 1
 c239: l[3,9] + l[9,3] <= 1
 c339: d[3,9] + d[9,3] <= 1
 c439: d[3,9] + d[9,3] + l[3,9] + l[9,3] >= 1
 c2310: l[3,10] + l[10,3] <= 1
 c3310: d[3,10] + d[10,3] <= 1
 c4310: d[3,10] + d[10,3] + l[3,10] + l[10,3] >= 1
 c2311: l[3,11] + l[11,3] <= 1
 c3311: d[3,11] + d[11,3] <= 1
 c4311: d[3,11] + d[11,3] + l[3,11] + l[11,3] >= 1
 c2312: l[3,12] + l[12,3] <= 1
 c3312: d[3,12] + d[12,3] <= 1
 c4312: d[3,12] + d[12,3] + l[3,12] + l[12,3] >= 1
 c2313: l[3,13] + l[13,3] <= 1
 c3313: d[3,13] + d[13,3] <= 1
 c4313: d[3,13] + d[13,3] + l[3,13] + l[13,3] >= 1
 c2314: l[3,14] + l[14,3] <= 1
 c3314: d[3,14] + d[14,3] <= 1
 c4314: d[3,14] + d[14,3] + l[3,14] + l[14,3] >= 1
 c2315: l[3,15] + l[15,3] <= 1
 c3315: d[3,15] + d[15,3] <= 1
 c4315: d[3,15] + d[15,3] + l[3,15] + l[15,3] >= 1
 c245: l[4,5] + l[5,4] <= 1
 c345: d[4,5] + d[5,4] <= 1
 c445: d[4,5] + d[5,4] + l[4,5] + l[5,4] >= 1
 c246: l[4,6] + l[6,4] <= 1
 c346: d[4,6] + d[6,4] <= 1
 c446: d[4,6] + d[6,4] + l[4,6] + l[6,4] >= 1
 c247: l[4,7] + l[7,4] <= 1
 c347: d[4,7] + d[7,4] <= 1
 c447: d[4,7] + d[7,4] + l[4,7] + l[7,4] >= 1
 c248: l[4,8] + l[8,4] <= 1
 c348: d[4,8] + d[8,4] <= 1
 c448: d[4,8] + d[8,4] + l[4,8] + l[8,4] >= 1
 c249: l[4,9] + l[9,4] <= 1
 c349: d[4,9] + d[9,4] <= 1
 c449: d[4,9] + d[9,4] + l[4,9] + l[9,4] >= 1
 c2410: l[4,10] + l[10,4] <= 1
 c3410: d[4,10] + d[10,4] <= 1
 c4410: d[4,10] + d[10,4] + l[4,10] + l[10,4] >= 1
 c2411: l[4,11] + l[11,4] <= 1
 c3411: d[4,11] + d[11,4] <= 1
 c4411: d[4,11] + d[11,4] + l[4,11] + l[11,4] >= 1
 c2412: l[4,12] + l[12,4] <= 1
 c3412: d[4,12] + d[12,4] <= 1
 c4412: d[4,12] + d[12,4] + l[4,12] + l[12,4] >= 1
 c2413: l[4,13] + l[13,4] <= 1
 c3413: d[4,13] + d[13,4] <= 1
 c4413: d[4,13] + d[13,4] + l[4,13] + l[13,4] >= 1
 c2414: l[4,14] + l[14,4] <= 1
 c3414: d[4,14] + d[14,4] <= 1
 c4414: d[4,14] + d[14,4] + l[4,14] + l[14,4] >= 1
 c2415: l[4,15] + l[15,4] <= 1
 c3415: d[4,15] + d[15,4] <= 1
 c4415: d[4,15] + d[15,4] + l[4,15] + l[15,4] >= 1
 c256: l[5,6] + l[6,5] <= 1
 c356: d[5,6] + d[6,5] <= 1
 c456: d[5,6] + d[6,5] + l[5,6] + l[6,5] >= 1
 c257: l[5,7] + l[7,5] <= 1
 c357: d[5,7] + d[7,5] <= 1
 c457: d[5,7] + d[7,5] + l[5,7] + l[7,5] >= 1
 c258: l[5,8] + l[8,5] <= 1
 c358: d[5,8] + d[8,5] <= 1
 c458: d[5,8] + d[8,5] + l[5,8] + l[8,5] >= 1
 c259: l[5,9] + l[9,5] <= 1
 c359: d[5,9] + d[9,5] <= 1
 c459: d[5,9] + d[9,5] + l[5,9] + l[9,5] >= 1
 c2510: l[5,10] + l[10,5] <= 1
 c3510: d[5,10] + d[10,5] <= 1
 c4510: d[5,10] + d[10,5] + l[5,10] + l[10,5] >= 1
 c2511: l[5,11] + l[11,5] <= 1
 c3511: d[5,11] + d[11,5] <= 1
 c4511: d[5,11] + d[11,5] + l[5,11] + l[11,5] >= 1
 c2512: l[5,12] + l[12,5] <= 1
 c3512: d[5,12] + d[12,5] <= 1
 c4512: d[5,12] + d[12,5] + l[5,12] + l[12,5] >= 1
 c2513: l[5,13] + l[13,5] <= 1
 c3513: d[5,13] + d[13,5] <= 1
 c4513: d[5,13] + d[13,5] + l[5,13] + l[13,5] >= 1
 c2514: l[5,14] + l[14,5] <= 1
 c3514: d[5,14] + d[14,5] <= 1
 c4514: d[5,14] + d[14,5] + l[5,14] + l[14,5] >= 1
 c2515: l[5,15] + l[15,5] <= 1
 c3515: d[5,15] + d[15,5] <= 1
 c4515: d[5,15] + d[15,5] + l[5,15] + l[15,5] >= 1
 c267: l[6,7] + l[7,6] <= 1
 c367: d[6,7] + d[7,6] <= 1
 c467: d[6,7] + d[7,6] + l[6,7] + l[7,6] >= 1
 c268: l[6,8] + l[8,6] <= 1
 c368: d[6,8] + d[8,6] <= 1
 c468: d[6,8] + d[8,6] + l[6,8] + l[8,6] >= 1
 c269: l[6,9] + l[9,6] <= 1
 c369: d[6,9] + d[9,6] <= 1
 c469: d[6,9] + d[9,6] + l[6,9] + l[9,6] >= 1
 c2610: l[6,10] + l[10,6] <= 1
 c3610: d[6,10] + d[10,6] <= 1
 c4610: d[6,10] + d[10,6] + l[6,10] + l[10,6] >= 1
 c2611: l[6,11] + l[11,6] <= 1
 c3611: d[6,11] + d[11,6] <= 1
 c4611: d[6,11] + d[11,6] + l[6,11] + l[11,6] >= 1
 c2612: l[6,12] + l[12,6] <= 1
 c3612: d[6,12] + d[12,6] <= 1
 c4612: d[6,12] + d[12,6] + l[6,12] + l[12,6] >= 1
 c2613: l[6,13] + l[13,6] <= 1
 c3613: d[6,13] + d[13,6] <= 1
 c4613: d[6,13] + d[13,6] + l[6,13] + l[13,6] >= 1
 c2614: l[6,14] + l[14,6] <= 1
 c3614: d[6,14] + d[14,6] <= 1
 c4614: d[6,14] + d[14,6] + l[6,14] + l[14,6] >= 1
 c2615: l[6,15] + l[15,6] <= 1
 c3615: d[6,15] + d[15,6] <= 1
 c4615: d[6,15] + d[15,6] + l[6,15] + l[15,6] >= 1
 c278: l[7,8] + l[8,7] <= 1
 c378: d[7,8] + d[8,7] <= 1
 c478: d[7,8] + d[8,7] + l[7,8] + l[8,7] >= 1
 c279: l[7,9] + l[9,7] <= 1
 c379: d[7,9] + d[9,7] <= 1
 c479: d[7,9] + d[9,7] + l[7,9] + l[9,7] >= 1
 c2710: l[7,10] + l[10,7] <= 1
 c3710: d[7,10] + d[10,7] <= 1
 c4710: d[7,10] + d[10,7] + l[7,10] + l[10,7] >= 1
 c2711: l[7,11] + l[11,7] <= 1
 c3711: d[7,11] + d[11,7] <= 1
 c4711: d[7,11] + d[11,7] + l[7,11] + l[11,7] >= 1
 c2712: l[7,12] + l[12,7] <= 1
 c3712: d[7,12] + d[12,7] <= 1
 c4712: d[7,12] + d[12,7] + l[7,12] + l[12,7] >= 1
 c2713: l[7,13] + l[13,7] <= 1
 c3713: d[7,13] + d[13,7] <= 1
 c4713: d[7,13] + d[13,7] + l[7,13] + l[13,7] >= 1
 c2714: l[7,14] + l[14,7] <= 1
 c3714: d[7,14] + d[14,7] <= 1
 c4714: d[7,14] + d[14,7] + l[7,14] + l[14,7] >= 1
 c2715: l[7,15] + l[15,7] <= 1
 c3715: d[7,15] + d[15,7] <= 1
 c4715: d[7,15] + d[15,7] + l[7,15] + l[15,7] >= 1
 c289: l[8,9] + l[9,8] <= 1
 c389: d[8,9] + d[9,8] <= 1
 c489: d[8,9] + d[9,8] + l[8,9] + l[9,8] >= 1
 c2810: l[8,10] + l[10,8] <= 1
 c3810: d[8,10] + d[10,8] <= 1
 c4810: d[8,10] + d[10,8] + l[8,10] + l[10,8] >= 1
 c2811: l[8,11] + l[11,8] <= 1
 c3811: d[8,11] + d[11,8] <= 1
 c4811: d[8,11] + d[11,8] + l[8,11] + l[11,8] >= 1
 c2812: l[8,12] + l[12,8] <= 1
 c3812: d[8,12] + d[12,8] <= 1
 c4812: d[8,12] + d[12,8] + l[8,12] + l[12,8] >= 1
 c2813: l[8,13] + l[13,8] <= 1
 c3813: d[8,13] + d[13,8] <= 1
 c4813: d[8,13] + d[13,8] + l[8,13] + l[13,8] >= 1
 c2814: l[8,14] + l[14,8] <= 1
 c3814: d[8,14] + d[14,8] <= 1
 c4814: d[8,14] + d[14,8] + l[8,14] + l[14,8] >= 1
 c2815: l[8,15] + l[15,8] <= 1
 c3815: d[8,15] + d[15,8] <= 1
 c4815: d[8,15] + d[15,8] + l[8,15] + l[15,8] >= 1
 c2910: l[9,10] + l[10,9] <= 1
 c3910: d[9,10] + d[10,9] <= 1
 c4910: d[9,10] + d[10,9] + l[9,10] + l[10,9] >= 1
 c2911: l[9,11] + l[11,9] <= 1
 c3911: d[9,11] + d[11,9] <= 1
 c4911: d[9,11] + d[11,9] + l[9,11] + l[11,9] >= 1
 c2912: l[9,12] + l[12,9] <= 1
 c3912: d[9,12] + d[12,9] <= 1
 c4912: d[9,12] + d[12,9] + l[9,12] + l[12,9] >= 1
 c2913: l[9,13] + l[13,9] <= 1
 c3913: d[9,13] + d[13,9] <= 1
 c4913: d[9,13] + d[13,9] + l[9,13] + l[13,9] >= 1
 c2914: l[9,14] + l[14,9] <= 1
 c3914: d[9,14] + d[14,9] <= 1
 c4914: d[9,14] + d[14,9] + l[9,14] + l[14,9] >= 1
 c2915: l[9,15] + l[15,9] <= 1
 c3915: d[9,15] + d[15,9] <= 1
 c4915: d[9,15] + d[15,9] + l[9,15] + l[15,9] >= 1
 c21011: l[10,11] + l[11,10] <= 1
 c31011: d[10,11] + d[11,10] <= 1
 c41011: d[10,11] + d[11,10] + l[10,11] + l[11,10] >= 1
 c21012: l[10,12] + l[12,10] <= 1
 c31012: d[10,12] + d[12,10] <= 1
 c41012: d[10,12] + d[12,10] + l[10,12] + l[12,10] >= 1
 c21013: l[10,13] + l[13,10] <= 1
 c31013: d[10,13] + d[13,10] <= 1
 c41013: d[10,13] + d[13,10] + l[10,13] + l[13,10] >= 1
 c21014: l[10,14] + l[14,10] <= 1
 c31014: d[10,14] + d[14,10] <= 1
 c41014: d[10,14] + d[14,10] + l[10,14] + l[14,10] >= 1
 c21015: l[10,15] + l[15,10] <= 1
 c31015: d[10,15] + d[15,10] <= 1
 c41015: d[10,15] + d[15,10] + l[10,15] + l[15,10] >= 1
 c21112: l[11,12] + l[12,11] <= 1
 c31112: d[11,12] + d[12,11] <= 1
 c41112: d[11,12] + d[12,11] + l[11,12] + l[12,11] >= 1
 c21113: l[11,13] + l[13,11] <= 1
 c31113: d[11,13] + d[13,11] <= 1
 c41113: d[11,13] + d[13,11] + l[11,13] + l[13,11] >= 1
 c21114: l[11,14] + l[14,11] <= 1
 c31114: d[11,14] + d[14,11] <= 1
 c41114: d[11,14] + d[14,11] + l[11,14] + l[14,11] >= 1
 c21115: l[11,15] + l[15,11] <= 1
 c31115: d[11,15] + d[15,11] <= 1
 c41115: d[11,15] + d[15,11] + l[11,15] + l[15,11] >= 1
 c21213: l[12,13] + l[13,12] <= 1
 c31213: d[12,13] + d[13,12] <= 1
 c41213: d[12,13] + d[13,12] + l[12,13] + l[13,12] >= 1
 c21214: l[12,14] + l[14,12] <= 1
 c31214: d[12,14] + d[14,12] <= 1
 c41214: d[12,14] + d[14,12] + l[12,14] + l[14,12] >= 1
 c21215: l[12,15] + l[15,12] <= 1
 c31215: d[12,15] + d[15,12] <= 1
 c41215: d[12,15] + d[15,12] + l[12,15] + l[15,12] >= 1
 c21314: l[13,14] + l[14,13] <= 1
 c31314: d[13,14] + d[14,13] <= 1
 c41314: d[13,14] + d[14,13] + l[13,14] + l[14,13] >= 1
 c21315: l[13,15] + l[15,13] <= 1
 c31315: d[13,15] + d[15,13] <= 1
 c41315: d[13,15] + d[15,13] + l[13,15] + l[15,13] >= 1
 c21415: l[14,15] + l[15,14] <= 1
 c31415: d[14,15] + d[15,14] <= 1
 c41415: d[14,15] + d[15,14] + l[14,15] + l[15,14] >= 1
 x01: x[1] <= 18
 x11: x[1] >= 0
 y01: y[1] >= 0
 px01: - x[1] + px[1] = -8
 x01: - y[1] + yh[1] = 3
 x02: x[2] <= 18
 x12: x[2] >= 0
 y02: y[2] >= 0
 px02: - x[2] + px[2] = -13
 x02: - y[2] + yh[2] = 3
 x03: x[3] <= 17
 x13: x[3] >= 0
 y03: y[3] >= 0
 px03: - x[3] + px[3] = -15
 x03: - y[3] + yh[3] = 3
 x04: x[4] <= 17
 x14: x[4] >= 0
 y04: y[4] >= 0
 px04: - x[4] + px[4] = -5
 x04: - y[4] + yh[4] = 6
 x05: x[5] <= 17
 x15: x[5] >= 0
 y05: y[5] >= 0
 px05: - x[5] + px[5] = -6
 x05: - y[5] + yh[5] = 6
 x06: x[6] <= 16
 x16: x[6] >= 0
 y06: y[6] >= 0
 px06: - x[6] + px[6] = -12
 x06: - y[6] + yh[6] = 7
 x07: x[7] <= 15
 x17: x[7] >= 0
 y07: y[7] >= 0
 px07: - x[7] + px[7] = -8
 x07: - y[7] + yh[7] = 8
 x08: x[8] <= 14
 x18: x[8] >= 0
 y08: y[8] >= 0
 px08: - x[8] + px[8] = -5
 x08: - y[8] + yh[8] = 9
 x09: x[9] <= 14
 x19: x[9] >= 0
 y09: y[9] >= 0
 px09: - x[9] + px[9] = 0
 x09: - y[9] + yh[9] = 9
 x010: x[10] <= 14
 x110: x[10] >= 0
 y010: y[10] >= 0
 px010: - x[10] + px[10] = 0
 x010: - y[10] + yh[10] = 10
 x011: x[11] <= 13
 x111: x[11] >= 0
 y011: y[11] >= 0
 px011: - x[11] + px[11] = -6
 x011: - y[11] + yh[11] = 11
 x012: x[12] <= 12
 x112: x[12] >= 0
 y012: y[12] >= 0
 px012: - x[12] + px[12] = -11
 x012: - y[12] + yh[12] = 11
 x013: x[13] <= 12
 x113: x[13] >= 0
 y013: y[13] >= 0
 px013: - x[13] + px[13] = -3
 x013: - y[13] + yh[13] = 12
 x014: x[14] <= 12
 x114: x[14] >= 0
 y014: y[14] >= 0
 px014: - x[14] + px[14] = -6
 x014: - y[14] + yh[14] = 12
 x015: x[15] <= 11
 x115: x[15] >= 0
 y015: y[15] >= 0
 px015: - x[15] + px[15] = -5
 x015: - y[15] + yh[15] = 12
Bounds
 px[1] >= -500
 px[2] >= -500
 px[3] >= -500
 px[4] >= -500
 px[5] >= -500
 px[6] >= -500
 px[7] >= -500
 px[8] >= -500
 px[9] >= -500
 px[10] >= -500
 px[11] >= -500
 px[12] >= -500
 px[13] >= -500
 px[14] >= -500
 px[15] >= -500
Binaries
 d[1,2] d[1,3] d[1,4] d[1,5] d[1,6] d[1,7] d[1,8] d[1,9] d[1,10] d[1,11]
 d[1,12] d[1,13] d[1,14] d[1,15] d[2,1] d[2,3] d[2,4] d[2,5] d[2,6] d[2,7]
 d[2,8] d[2,9] d[2,10] d[2,11] d[2,12] d[2,13] d[2,14] d[2,15] d[3,1]
 d[3,2] d[3,4] d[3,5] d[3,6] d[3,7] d[3,8] d[3,9] d[3,10] d[3,11] d[3,12]
 d[3,13] d[3,14] d[3,15] d[4,1] d[4,2] d[4,3] d[4,5] d[4,6] d[4,7] d[4,8]
 d[4,9] d[4,10] d[4,11] d[4,12] d[4,13] d[4,14] d[4,15] d[5,1] d[5,2]
 d[5,3] d[5,4] d[5,6] d[5,7] d[5,8] d[5,9] d[5,10] d[5,11] d[5,12] d[5,13]
 d[5,14] d[5,15] d[6,1] d[6,2] d[6,3] d[6,4] d[6,5] d[6,7] d[6,8] d[6,9]
 d[6,10] d[6,11] d[6,12] d[6,13] d[6,14] d[6,15] d[7,1] d[7,2] d[7,3]
 d[7,4] d[7,5] d[7,6] d[7,8] d[7,9] d[7,10] d[7,11] d[7,12] d[7,13] d[7,14]
 d[7,15] d[8,1] d[8,2] d[8,3] d[8,4] d[8,5] d[8,6] d[8,7] d[8,9] d[8,10]
 d[8,11] d[8,12] d[8,13] d[8,14] d[8,15] d[9,1] d[9,2] d[9,3] d[9,4] d[9,5]
 d[9,6] d[9,7] d[9,8] d[9,10] d[9,11] d[9,12] d[9,13] d[9,14] d[9,15]
 d[10,1] d[10,2] d[10,3] d[10,4] d[10,5] d[10,6] d[10,7] d[10,8] d[10,9]
 d[10,11] d[10,12] d[10,13] d[10,14] d[10,15] d[11,1] d[11,2] d[11,3]
 d[11,4] d[11,5] d[11,6] d[11,7] d[11,8] d[11,9] d[11,10] d[11,12] d[11,13]
 d[11,14] d[11,15] d[12,1] d[12,2] d[12,3] d[12,4] d[12,5] d[12,6] d[12,7]
 d[12,8] d[12,9] d[12,10] d[12,11] d[12,13] d[12,14] d[12,15] d[13,1]
 d[13,2] d[13,3] d[13,4] d[13,5] d[13,6] d[13,7] d[13,8] d[13,9] d[13,10]
 d[13,11] d[13,12] d[13,14] d[13,15] d[14,1] d[14,2] d[14,3] d[14,4]
 d[14,5] d[14,6] d[14,7] d[14,8] d[14,9] d[14,10] d[14,11] d[14,12]
 d[14,13] d[14,15] d[15,1] d[15,2] d[15,3] d[15,4] d[15,5] d[15,6] d[15,7]
 d[15,8] d[15,9] d[15,10] d[15,11] d[15,12] d[15,13] d[15,14] l[1,2] l[1,3]
 l[1,4] l[1,5] l[1,6] l[1,7] l[1,8] l[1,9] l[1,10] l[1,11] l[1,12] l[1,13]
 l[1,14] l[1,15] l[2,1] l[2,3] l[2,4] l[2,5] l[2,6] l[2,7] l[2,8] l[2,9]
 l[2,10] l[2,11] l[2,12] l[2,13] l[2,14] l[2,15] l[3,1] l[3,2] l[3,4]
 l[3,5] l[3,6] l[3,7] l[3,8] l[3,9] l[3,10] l[3,11] l[3,12] l[3,13] l[3,14]
 l[3,15] l[4,1] l[4,2] l[4,3] l[4,5] l[4,6] l[4,7] l[4,8] l[4,9] l[4,10]
 l[4,11] l[4,12] l[4,13] l[4,14] l[4,15] l[5,1] l[5,2] l[5,3] l[5,4] l[5,6]
 l[5,7] l[5,8] l[5,9] l[5,10] l[5,11] l[5,12] l[5,13] l[5,14] l[5,15]
 l[6,1] l[6,2] l[6,3] l[6,4] l[6,5] l[6,7] l[6,8] l[6,9] l[6,10] l[6,11]
 l[6,12] l[6,13] l[6,14] l[6,15] l[7,1] l[7,2] l[7,3] l[7,4] l[7,5] l[7,6]
 l[7,8] l[7,9] l[7,10] l[7,11] l[7,12] l[7,13] l[7,14] l[7,15] l[8,1]
 l[8,2] l[8,3] l[8,4] l[8,5] l[8,6] l[8,7] l[8,9] l[8,10] l[8,11] l[8,12]
 l[8,13] l[8,14] l[8,15] l[9,1] l[9,2] l[9,3] l[9,4] l[9,5] l[9,6] l[9,7]
 l[9,8] l[9,10] l[9,11] l[9,12] l[9,13] l[9,14] l[9,15] l[10,1] l[10,2]
 l[10,3] l[10,4] l[10,5] l[10,6] l[10,7] l[10,8] l[10,9] l[10,11] l[10,12]
 l[10,13] l[10,14] l[10,15] l[11,1] l[11,2] l[11,3] l[11,4] l[11,5] l[11,6]
 l[11,7] l[11,8] l[11,9] l[11,10] l[11,12] l[11,13] l[11,14] l[11,15]
 l[12,1] l[12,2] l[12,3] l[12,4] l[12,5] l[12,6] l[12,7] l[12,8] l[12,9]
 l[12,10] l[12,11] l[12,13] l[12,14] l[12,15] l[13,1] l[13,2] l[13,3]
 l[13,4] l[13,5] l[13,6] l[13,7] l[13,8] l[13,9] l[13,10] l[13,11] l[13,12]
 l[13,14] l[13,15] l[14,1] l[14,2] l[14,3] l[14,4] l[14,5] l[14,6] l[14,7]
 l[14,8] l[14,9] l[14,10] l[14,11] l[14,12] l[14,13] l[14,15] l[15,1]
 l[15,2] l[15,3] l[15,4] l[15,5] l[15,6] l[15,7] l[15,8] l[15,9] l[15,10]
 l[15,11] l[15,12] l[15,13] l[15,14]
Generals
 x[1] x[2] x[3] x[4] x[5] x[6] x[7] x[8] x[9] x[10] x[11] x[12] x[13] x[14]
 x[15] y[1] y[2] y[3] y[4] y[5] y[6] y[7] y[8] y[9] y[10] y[11] y[12] y[13]
 y[14] y[15] h_max px[1] px[2] px[3] px[4] px[5] px[6] px[7] px[8] px[9]
 px[10] px[11] px[12] px[13] px[14] px[15] yh[1] yh[2] yh[3] yh[4] yh[5]
 yh[6] yh[7] yh[8] yh[9] yh[10] yh[11] yh[12] yh[13] yh[14] yh[15] pxf[1]
 pxf[2] pxf[3] pxf[4] pxf[5] pxf[6] pxf[7] pxf[8] pxf[9] pxf[10] pxf[11]
 pxf[12] pxf[13] pxf[14] pxf[15]
General Constraints
 max_height: h_max = MAX ( yh[1] , yh[2] , yh[3] , yh[4] , yh[5] , yh[6] ,
   yh[7] , yh[8] , yh[9] , yh[10] , yh[11] , yh[12] , yh[13] , yh[14] ,
   yh[15] )
 abspx1: pxf[1] = ABS ( px[1] )
 abspx2: pxf[2] = ABS ( px[2] )
 abspx3: pxf[3] = ABS ( px[3] )
 abspx4: pxf[4] = ABS ( px[4] )
 abspx5: pxf[5] = ABS ( px[5] )
 abspx6: pxf[6] = ABS ( px[6] )
 abspx7: pxf[7] = ABS ( px[7] )
 abspx8: pxf[8] = ABS ( px[8] )
 abspx9: pxf[9] = ABS ( px[9] )
 abspx10: pxf[10] = ABS ( px[10] )
 abspx11: pxf[11] = ABS ( px[11] )
 abspx12: pxf[12] = ABS ( px[12] )
 abspx13: pxf[13] = ABS ( px[13] )
 abspx14: pxf[14] = ABS ( px[14] )
 abspx15: pxf[15] = ABS ( px[15] )
End
